p tdp 75 130
1 6
1 2
2 7
2 3
3 8
3 4
4 9
4 5
5 10
6 11
6 7
7 12
7 8
8 13
8 9
9 14
9 10
10 15
11 16
11 12
12 17
12 13
13 18
13 14
14 19
14 15
15 20
16 21
16 17
17 22
17 18
18 23
18 19
19 24
19 20
20 25
21 26
21 22
22 27
22 23
23 28
23 24
24 29
24 25
25 30
26 31
26 27
27 32
27 28
28 33
28 29
29 34
29 30
30 35
31 36
31 32
32 37
32 33
33 38
33 34
34 39
34 35
35 40
36 41
36 37
37 42
37 38
38 43
38 39
39 44
39 40
40 45
41 46
41 42
42 47
42 43
43 48
43 44
44 49
44 45
45 50
46 51
46 47
47 52
47 48
48 53
48 49
49 54
49 50
50 55
51 56
51 52
52 57
52 53
53 58
53 54
54 59
54 55
55 60
56 61
56 57
57 62
57 58
58 63
58 59
59 64
59 60
60 65
61 66
61 62
62 67
62 63
63 68
63 64
64 69
64 65
65 70
66 71
66 67
67 72
67 68
68 73
68 69
69 74
69 70
70 75
71 72
72 73
73 74
74 75
